
Gurobi 6.5.2 (linux64) logging started Mon Aug 29 10:57:52 2016

Optimize a model with 41 rows, 153 columns and 343 nonzeros
Coefficient statistics:
  Matrix range    [1e+00, 2e+00]
  Objective range [5e+00, 1e+02]
  Bounds range    [1e+00, 1e+00]
  RHS range       [1e+00, 1e+00]
Found heuristic solution: objective 1445
Presolve removed 14 rows and 4 columns
Presolve time: 0.00s
Presolved: 27 rows, 149 columns, 303 nonzeros
Variable types: 0 continuous, 149 integer (149 binary)

Root relaxation: objective 4.630000e+02, 31 iterations, 0.00 seconds

    Nodes    |    Current Node    |     Objective Bounds      |     Work
 Expl Unexpl |  Obj  Depth IntInf | Incumbent    BestBd   Gap | It/Node Time

*    0     0               0     463.0000000  463.00000  0.00%     -    0s

Explored 0 nodes (31 simplex iterations) in 0.00 seconds
Thread count was 8 (of 8 available processors)

Optimal solution found (tolerance 1.00e-04)
Best objective 4.630000000000e+02, best bound 4.630000000000e+02, gap 0.0%
